Minimize
  - 9 y_0 - 6 y_1 - 5 y_3 - 3 y_4 - 5 y_5 - 9 y_6 - 10 y_7 - 9 y_8 - 8 y_9
   + 74 x_0_6 + 13 x_0_7 + 17 x_0_8 + 9 x_1_3 + 36 x_1_6 + 50 x_2_3
   + 101 x_2_7 + 82 x_2_9 + 24 x_4_5 + 85 x_4_6 + 49 x_5_8 + 74 x_6_7
   + 19 x_7_9 + 19 x_8_9 + 64 Constant
Subject To
 c_0: y_7 = 1
 c_1_0: y_0 + y_7 + y_8 + y_9 >= 1
 c_1_1: y_1 + y_3 >= 1
 c_1_2: y_2 >= 1
 c_1_3: y_1 + y_3 >= 1
 c_1_4: y_4 >= 1
 c_1_5: y_5 >= 1
 c_1_6: y_6 >= 1
 c_1_7: y_0 + y_7 + y_9 >= 1
 c_1_8: y_0 + y_8 + y_9 >= 1
 c_1_9: y_0 + y_7 + y_8 + y_9 >= 1
 c_2_0: - 2 y_0 + x_0_6 + x_0_7 + x_0_8 = 0
 c_2_1: - 2 y_1 + x_1_3 + x_1_6 = 0
 c_2_2: - 2 y_2 + x_2_3 + x_2_7 + x_2_9 = 0
 c_2_3: - 2 y_3 + x_1_3 + x_2_3 = 0
 c_2_4: - 2 y_4 + x_4_5 + x_4_6 = 0
 c_2_5: - 2 y_5 + x_4_5 + x_5_8 = 0
 c_2_6: - 2 y_6 + x_0_6 + x_1_6 + x_4_6 + x_6_7 = 0
 c_2_7: - 2 y_7 + x_0_7 + x_2_7 + x_6_7 + x_7_9 = 0
 c_2_8: - 2 y_8 + x_0_8 + x_5_8 + x_8_9 = 0
 c_2_9: - 2 y_9 + x_2_9 + x_7_9 + x_8_9 = 0
Bounds
 Constant = 1
Binaries
 y_0 y_1 y_2 y_3 y_4 y_5 y_6 y_7 y_8 y_9 x_0_6 x_0_7 x_0_8 x_1_3 x_1_6
 x_2_3 x_2_7 x_2_9 x_4_5 x_4_6 x_5_8 x_6_7 x_7_9 x_8_9
End
